100 5
25 200
10
7
13
19
26
3
5
9
16
16
12
19
23
20
8
19
2
12
17
9
11
18
29
3
6
17
16
16
9
21
27
23
11
14
8
5
8
16
31
9
5
5
7
18
16
1
27
36
30
13
10
9
14
18
2
6
7
18
28
3
13
19
10
9
20
25
25
36
6
5
15
25
9
8
18
13
14
3
23
6
26
16
11
7
41
35
26
9
15
3
1
2
22
27
20
11
12
10
9
17
35 35 0 230 0 0
41 49 130 201 10 2
35 17 20 89 10 1
55 45 106 135 10 2
55 20 71 195 10 3
15 30 20 107 10 1
25 30 54 153 10 2
20 50 66 105 10 1
10 43 61 138 10 1
55 60 53 150 10 1
30 60 101 156 10 3
20 65 33 152 10 1
50 35 38 97 10 3
30 25 70 208 10 1
15 10 32 137 10 2
30 5 30 154 10 1
10 20 54 105 10 1
5 30 51 189 10 3
20 40 77 106 10 1
15 60 53 108 10 1
45 65 109 152 10 2
45 20 37 96 10 1
45 10 59 144 10 2
55 5 36 155 10 1
65 35 118 190 10 1
65 20 47 186 10 3
45 30 117 156 10 2
35 40 5 156 10 1
41 37 8 79 10 2
64 42 37 98 10 1
40 60 28 123 10 2
31 52 24 85 10 2
35 69 116 175 10 1
53 52 24 179 10 2
65 55 100 143 10 3
63 65 50 178 10 2
2 60 41 178 10 1
20 20 117 160 10 2
5 5 42 145 10 2
60 12 33 186 10 1
40 25 51 128 10 2
42 7 44 159 10 3
24 12 25 172 10 2
23 3 115 158 10 2
11 14 31 138 10 2
6 38 29 189 10 1
2 48 93 150 10 2
8 56 34 116 10 2
13 52 125 192 10 3
6 68 93 132 10 3
47 47 105 152 10 3
49 58 66 119 10 1
27 43 25 88 10 3
37 31 62 137 10 1
57 29 121 168 10 2
63 23 70 189 10 2
53 12 81 188 10 3
32 12 78 133 10 3
36 26 79 210 10 1
21 24 17 123 10 3
17 34 130 201 10 2
12 24 59 102 10 2
24 58 25 164 10 3
27 69 34 112 10 3
15 77 46 165 10 1
62 77 49 170 10 3
49 73 77 179 10 3
67 5 43 150 10 1
56 39 82 198 10 1
37 47 12 142 10 2
37 56 21 198 10 1
57 68 57 106 10 1
47 16 22 110 10 1
44 17 60 105 10 1
46 13 73 195 10 3
49 11 46 101 10 1
49 42 36 119 10 1
53 43 65 200 10 2
61 52 43 158 10 2
57 48 58 135 10 2
56 37 69 198 10 2
55 54 87 110 10 2
15 47 28 91 10 2
14 37 21 97 10 2
11 31 68 143 10 1
16 22 74 117 10 2
4 18 79 118 10 3
28 18 84 111 10 1
26 52 24 133 10 2
26 35 128 211 10 2
31 67 76 123 10 2
15 19 130 194 10 2
22 22 18 181 10 1
18 24 41 199 10 2
26 27 88 121 10 3
25 24 14 83 10 1
22 27 119 160 10 3
25 21 122 153 10 1
19 21 32 93 10 2
20 26 38 137 10 1
18 18 28 195 10 3
11 48 0 230 5 4
50 54 0 230 5 4
17 45 0 230 5 4
20 34 0 230 5 4
45 15 0 230 5 4
0 1 0 0 0
0 0 0 0 0
0 1 0 0 0
0 0 0 0 1
0 0 0 0 0
0 0 0 1 0
0 0 0 0 0
0 0 0 0 0
0 0 0 0 0
0 0 1 0 0
0 0 0 0 0
0 1 0 0 0
0 0 0 0 0
0 0 0 1 0
0 0 0 0 0
0 0 0 0 0
0 0 0 1 0
0 0 0 0 0
0 0 0 0 0
0 1 0 0 0
0 0 0 0 0
0 0 0 0 1
0 0 0 0 0
0 0 0 0 0
0 0 0 0 1
0 0 0 0 1
0 0 0 0 0
0 1 0 0 0
0 0 0 0 0
0 1 0 0 0
0 0 1 0 0
0 0 0 0 0
0 1 0 0 0
0 1 0 0 0
0 1 0 0 0
0 0 0 0 0
0 0 0 1 0
0 0 0 1 0
0 0 0 0 0
0 0 0 0 1
0 0 0 0 1
0 0 0 0 1
0 0 0 0 1
0 0 0 1 0
0 0 0 0 0
1 0 0 0 0
1 0 0 0 0
1 0 0 0 0
1 0 0 0 0
0 1 0 0 0
0 0 0 0 0
0 0 1 0 0
0 0 0 0 0
0 0 0 0 1
0 0 0 0 1
0 0 0 0 1
0 0 0 0 1
0 0 0 0 0
0 0 0 1 0
0 0 0 1 0
0 0 0 1 0
0 0 1 0 0
0 0 1 0 0
0 0 0 0 0
0 1 0 0 0
0 1 0 0 0
0 0 0 0 0
0 0 0 0 0
0 1 0 0 0
0 0 0 0 0
0 0 0 0 0
0 0 0 0 0
0 0 0 0 0
0 0 0 0 1
0 0 0 0 0
0 0 0 0 0
0 1 0 0 0
0 1 0 0 0
0 1 0 0 0
0 1 0 0 0
0 1 0 0 0
0 0 1 0 0
0 0 0 1 0
0 0 0 0 0
0 0 0 1 0
0 0 0 1 0
0 0 0 0 0
0 0 1 0 0
0 0 0 1 0
0 1 0 0 0
0 0 0 1 0
0 0 0 0 0
0 0 0 1 0
0 0 0 1 0
0 0 0 0 0
0 0 0 1 0
0 0 0 0 0
0 0 0 1 0
0 0 0 0 0
0 0 0 1 0
